p cnf 194 292
-98 95 0
-98 96 0
98 -95 -96 0
-99 87 0
-99 88 0
99 -87 -88 0
-100 85 0
-100 86 0
100 -85 -86 0
-101 79 0
-101 80 0
101 -79 -80 0
-102 75 0
-102 76 0
102 -75 -76 0
-103 71 0
-103 72 0
103 -71 -72 0
-104 69 0
-104 70 0
104 -69 -70 0
-105 67 0
-105 68 0
105 -67 -68 0
-106 65 0
-106 66 0
106 -65 -66 0
-107 59 0
-107 60 0
107 -59 -60 0
-108 57 0
-108 58 0
108 -57 -58 0
-109 55 0
-109 56 0
109 -55 -56 0
-110 51 0
-110 52 0
110 -51 -52 0
-111 49 0
-111 50 0
111 -49 -50 0
-112 -110 0
-112 -111 0
112 110 111 0
-113 53 0
-113 54 0
113 -53 -54 0
-114 112 0
-114 -113 0
114 -112 113 0
-115 -109 0
-115 114 0
115 109 -114 0
-116 -108 0
-116 115 0
116 108 -115 0
-117 -107 0
-117 116 0
117 107 -116 0
-118 61 0
-118 62 0
118 -61 -62 0
-119 117 0
-119 -118 0
119 -117 118 0
-120 63 0
-120 64 0
120 -63 -64 0
-121 119 0
-121 -120 0
121 -119 120 0
-122 -106 0
-122 121 0
122 106 -121 0
-123 -105 0
-123 122 0
123 105 -122 0
-124 -104 0
-124 123 0
124 104 -123 0
-125 -103 0
-125 124 0
125 103 -124 0
-126 73 0
-126 74 0
126 -73 -74 0
-127 125 0
-127 -126 0
127 -125 126 0
-128 -102 0
-128 127 0
128 102 -127 0
-129 77 0
-129 78 0
129 -77 -78 0
-130 128 0
-130 -129 0
130 -128 129 0
-131 -101 0
-131 130 0
131 101 -130 0
-132 81 0
-132 82 0
132 -81 -82 0
-133 131 0
-133 -132 0
133 -131 132 0
-134 83 0
-134 84 0
134 -83 -84 0
-135 133 0
-135 -134 0
135 -133 134 0
-136 -100 0
-136 135 0
136 100 -135 0
-137 -99 0
-137 136 0
137 99 -136 0
-138 89 0
-138 90 0
138 -89 -90 0
-139 137 0
-139 -138 0
139 -137 138 0
-140 91 0
-140 92 0
140 -91 -92 0
-141 139 0
-141 -140 0
141 -139 140 0
-142 93 0
-142 94 0
142 -93 -94 0
-143 141 0
-143 -142 0
143 -141 142 0
-144 -98 0
-144 143 0
144 98 -143 0
-145 -97 0
-145 -144 0
145 97 144 0
-146 47 0
-146 48 0
146 -47 -48 0
-147 45 0
-147 46 0
147 -45 -46 0
-148 41 0
-148 42 0
148 -41 -42 0
-149 37 0
-149 38 0
149 -37 -38 0
-150 35 0
-150 36 0
150 -35 -36 0
-151 33 0
-151 34 0
151 -33 -34 0
-152 31 0
-152 32 0
152 -31 -32 0
-153 23 0
-153 24 0
153 -23 -24 0
-154 19 0
-154 20 0
154 -19 -20 0
-155 13 0
-155 14 0
155 -13 -14 0
-156 9 0
-156 10 0
156 -9 -10 0
-157 3 0
-157 4 0
157 -3 -4 0
-158 1 0
-158 2 0
158 -1 -2 0
-159 -157 0
-159 -158 0
159 157 158 0
-160 5 0
-160 6 0
160 -5 -6 0
-161 159 0
-161 -160 0
161 -159 160 0
-162 7 0
-162 8 0
162 -7 -8 0
-163 161 0
-163 -162 0
163 -161 162 0
-164 -156 0
-164 163 0
164 156 -163 0
-165 11 0
-165 12 0
165 -11 -12 0
-166 164 0
-166 -165 0
166 -164 165 0
-167 -155 0
-167 166 0
167 155 -166 0
-168 15 0
-168 16 0
168 -15 -16 0
-169 167 0
-169 -168 0
169 -167 168 0
-170 17 0
-170 18 0
170 -17 -18 0
-171 169 0
-171 -170 0
171 -169 170 0
-172 -154 0
-172 171 0
172 154 -171 0
-173 21 0
-173 22 0
173 -21 -22 0
-174 172 0
-174 -173 0
174 -172 173 0
-175 -153 0
-175 174 0
175 153 -174 0
-176 25 0
-176 26 0
176 -25 -26 0
-177 175 0
-177 -176 0
177 -175 176 0
-178 27 0
-178 28 0
178 -27 -28 0
-179 177 0
-179 -178 0
179 -177 178 0
-180 29 0
-180 30 0
180 -29 -30 0
-181 179 0
-181 -180 0
181 -179 180 0
-182 -152 0
-182 181 0
182 152 -181 0
-183 -151 0
-183 182 0
183 151 -182 0
-184 -150 0
-184 183 0
184 150 -183 0
-185 -149 0
-185 184 0
185 149 -184 0
-186 39 0
-186 40 0
186 -39 -40 0
-187 185 0
-187 -186 0
187 -185 186 0
-188 -148 0
-188 187 0
188 148 -187 0
-189 43 0
-189 44 0
189 -43 -44 0
-190 188 0
-190 -189 0
190 -188 189 0
-191 -147 0
-191 190 0
191 147 -190 0
-192 -146 0
-192 191 0
192 146 -191 0
-193 97 0
-193 -192 0
193 -97 192 0
-194 -145 0
-194 -193 0
194 145 193 0
-194 0
